39356 37810 
38145 38892 
38136 39013 
37657 39349 
39181 38099 
39249 37998 
38370 38773 
38541 38575 
38339 38834 
38302 38874 
39968 37231 
38884 38351 
38510 38636 
39270 37982 
37851 39291 
38820 38479 
39539 37753 
39212 38038 
39724 37622 
38845 38397 
39564 37671 
39142 38145 
39313 37947 
38991 38281 
38601 38504 
39111 38206 
38236 38883 
37887 39023 
38777 38498 
39976 37052 
40232 36734 
40141 36766 
39830 37480 
39861 37419 
39496 37772 
38533 38605 
38948 38300 
40125 36922 
40057 37023 
40516 36110 
40499 36214 
40748 35520 
40467 36273 
40605 35940 
40401 36381 
40407 36308 
40634 35851 
40518 36027 
40773 35283 
40925 34635 
40527 35998 
40805 35224 
40254 36524 
40310 36498 
40341 36437 
40947 34355 
40249 36574 
40961 33884 
40846 35168 
41008 33837 
40954 34133 
40152 36764 
40893 34750 
40711 35724 
40636 35745 
41045 33156 
40416 36282 
